
Gurobi 11.0.2 (win64) logging started Sun Aug 18 12:23:18 2024

Set parameter LogFile to value "D:\Documenti\Scuola\Laurea magistrale unibs\laurea-unibs-mkfsp\output\2024-08-18T10_03_15.889499\logs\instance03_bucket2.log"
Set parameter TimeLimit to value 350
Set parameter MIPGap to value 0
Gurobi Optimizer version 11.0.2 build v11.0.2rc0 (win64 - Windows 10.0 (19045.2))

CPU model: Intel(R) Core(TM) i5-4670 CPU @ 3.40GHz, instruction set [SSE2|AVX|AVX2]
Thread count: 4 physical cores, 4 logical processors, using up to 4 threads

Optimize a model with 1154 rows, 5441 columns and 58266 nonzeros
Model fingerprint: 0xf001d409
Variable types: 0 continuous, 5441 integer (5398 binary)
Coefficient statistics:
  Matrix range     [1e+00, 8e+03]
  Objective range  [6e+02, 8e+03]
  Bounds range     [1e+00, 1e+00]
  RHS range        [1e+00, 2e+05]
Found heuristic solution: objective 168663.00000
Presolve time: 0.07s
Presolved: 1154 rows, 5441 columns, 58266 nonzeros
Variable types: 0 continuous, 5441 integer (5398 binary)
Found heuristic solution: objective 212307.00000

Root relaxation: objective 2.392400e+05, 584 iterations, 0.01 seconds (0.01 work units)

    Nodes    |    Current Node    |     Objective Bounds      |     Work
 Expl Unexpl |  Obj  Depth IntInf | Incumbent    BestBd   Gap | It/Node Time

H    0     0                    239240.00000 239240.000  0.00%     -    0s
     0     0 239240.000    0  246 239240.000 239240.000  0.00%     -    0s

Explored 1 nodes (584 simplex iterations) in 0.10 seconds (0.08 work units)
Thread count was 4 (of 4 available processors)

Solution count 3: 239240 212307 168663 

Optimal solution found (tolerance 0.00e+00)
Best objective 2.392400000000e+05, best bound 2.392400000000e+05, gap 0.0000%
